(set-logic QF_S)
(declare-fun var0 () String)
(assert (RegexIn var0 (RegexConcat (RegexUnion (RegexStar (Str2Reg "0")) (RegexStar (Str2Reg "111"))) (RegexConcat (RegexUnion (RegexStar (Str2Reg "2")) (RegexStar (Str2Reg "333"))) (RegexConcat (RegexStar (RegexPlus (Str2Reg "444"))) (RegexConcat (RegexStar (RegexUnion (Str2Reg "5") (Str2Reg "6"))) (RegexConcat (RegexPlus (RegexUnion (Str2Reg "777") (Str2Reg "8"))) (RegexConcat (RegexPlus (RegexUnion (Str2Reg "999") (Str2Reg "aa"))) (RegexConcat (RegexUnion (RegexUnion (Str2Reg "bbb") (Str2Reg "cc")) (RegexUnion (Str2Reg "dd") (Str2Reg "eee"))) (RegexConcat (RegexStar (RegexStar (Str2Reg "f"))) (RegexConcat (RegexUnion (RegexPlus (Str2Reg "gg")) (RegexPlus (Str2Reg "h"))) (RegexUnion (RegexStar (Str2Reg "i")) (RegexStar (Str2Reg "jj"))))))))))))))
(assert (<= 326 (Length var0)))
(check-sat)